clingo version 4.5.4       
Reading from .\Timetable.cl
Solving...
Answer: 1
slot_completo(project_management,4,5,4,3,muzzetto) slot_completo(project_management,6,5,4,4,muzzetto) slot_completo(project_management,7,1,1,2,muzzetto) slot_completo(project_management,2,6,1,3,muzzetto) slot_completo(project_management,4,6,1,2,muzzetto) slot_completo(fondamenti_ict,8,5,5,4,pozzato) slot_completo(fondamenti_ict,12,5,1,4,pozzato) slot_completo(fondamenti_ict,7,2,3,3,pozzato) slot_completo(fondamenti_ict,5,6,3,3,pozzato) slot_completo(linguaggi_markup,5,5,5,2,gena) slot_completo(linguaggi_markup,7,5,1,4,gena) slot_completo(linguaggi_markup,10,5,7,2,gena) slot_completo(linguaggi_markup,7,4,1,4,gena) slot_completo(linguaggi_markup,7,6,4,2,gena) slot_completo(linguaggi_markup,8,6,1,3,gena) slot_completo(linguaggi_markup,11,6,3,3,gena) slot_completo(gestione_qualita,13,5,1,3,tomatis) slot_completo(gestione_qualita,16,5,7,2,tomatis) slot_completo(gestione_qualita,16,1,3,2,tomatis) slot_completo(gestione_qualita,14,6,3,3,tomatis) slot_completo(ambienti_sviluppo_linguaggi_clientside_web,12,5,5,3,micalizio) slot_completo(ambienti_sviluppo_linguaggi_clientside_web,13,5,6,3,micalizio) slot_completo(ambienti_sviluppo_linguaggi_clientside_web,17,5,1,2,micalizio) slot_completo(ambienti_sviluppo_linguaggi_clientside_web,16,2,1,4,micalizio) slot_completo(ambienti_sviluppo_linguaggi_clientside_web,16,4,5,4,micalizio) slot_completo(ambienti_sviluppo_linguaggi_clientside_web,12,6,1,2,micalizio) slot_completo(ambienti_sviluppo_linguaggi_clientside_web,13,6,2,2,micalizio) slot_completo(progettazione_grafica,15,5,1,4,terranova) slot_completo(progettazione_grafica,24,5,3,2,terranova) slot_completo(progettazione_grafica,16,1,1,2,terranova) 
slot_completo(progettazione_grafica,19,6,1,2,terranova) slot_completo(progettazione_basi_dati,1,5,5,4,mazzei) slot_completo(progettazione_basi_dati,3,5,5,4,mazzei) slot_completo(progettazione_basi_dati,1,6,1,4,mazzei) slot_completo(progettazione_basi_dati,2,6,4,2,mazzei) slot_completo(progettazione_basi_dati,3,6,3,3,mazzei) slot_completo(progettazione_basi_dati,6,6,1,3,mazzei) slot_completo(strumenti_metodi_interazione_social,14,5,7,2,giordani) slot_completo(strumenti_metodi_interazione_social,16,5,1,4,giordani) slot_completo(strumenti_metodi_interazione_social,17,5,5,4,giordani) slot_completo(strumenti_metodi_interazione_social,13,6,4,2,giordani) slot_completo(strumenti_metodi_interazione_social,21,6,1,2,giordani) slot_completo(acquisizione_elaborazione_immagini_statiche,3,5,1,4,zanchetta) slot_completo(acquisizione_elaborazione_immagini_statiche,4,5,7,2,zanchetta) slot_completo(acquisizione_elaborazione_immagini_statiche,5,5,1,4,zanchetta) slot_completo(acquisizione_elaborazione_immagini_statiche,3,6,1,2,zanchetta) slot_completo(acquisizione_elaborazione_immagini_statiche,5,6,1,2,zanchetta) slot_completo(accessibilita_usabilita,2,5,6,3,gena) 
slot_completo(accessibilita_usabilita,5,5,7,2,gena) slot_completo(accessibilita_usabilita,8,5,1,2,gena) slot_completo(accessibilita_usabilita,23,5,7,2,gena) slot_completo(accessibilita_usabilita,7,3,4,3,gena) slot_completo(accessibilita_usabilita,7,6,1,2,gena) slot_completo(marketing_digitale,7,5,5,2,muzzetto) slot_completo(marketing_digitale,11,5,5,4,muzzetto) slot_completo(marketing_digitale,7,3,7,2,muzzetto) slot_completo(marketing_digitale,12,6,4,2,muzzetto) slot_completo(elementi_fotografia,6,5,1,3,vargiu) slot_completo(elementi_fotografia,9,5,3,2,vargiu) slot_completo(elementi_fotografia,7,2,6,3,vargiu) slot_completo(elementi_fotografia,8,6,4,2,vargiu) slot_completo(risorse_digitali,22,5,6,3,boiolo) slot_completo(risorse_digitali,24,5,5,4,boiolo) slot_completo(risorse_digitali,10,6,3,3,boiolo) slot_completo(tecnologie_server_side,13,5,4,2,damiano) slot_completo(tecnologie_server_side,17,5,3,2,damiano) slot_completo(tecnologie_server_side,16,1,5,4,damiano) slot_completo(tecnologie_server_side,7,4,5,4,damiano) slot_completo(tecnologie_server_side,16,4,1,4,damiano) slot_completo(tecnologie_server_side,9,6,4,2,damiano) slot_completo(tecnologie_server_side,14,6,1,2,damiano) slot_completo(tecniche_strumenti_marketing,21,5,6,3,zanchetta) slot_completo(tecniche_strumenti_marketing,23,5,5,2,zanchetta) slot_completo(tecniche_strumenti_marketing,15,6,4,2,zanchetta) slot_completo(tecniche_strumenti_marketing,16,6,1,3,zanchetta) slot_completo(introduzione_social_media,9,5,7,2,suppini) slot_completo(introduzione_social_media,7,1,3,3,suppini) slot_completo(introduzione_social_media,16,3,5,4,suppini) slot_completo(introduzione_social_media,4,6,3,3,suppini) slot_completo(introduzione_social_media,20,6,4,2,suppini) slot_completo(acquisizione_elaborazione_suono,8,5,3,2,valle) slot_completo(acquisizione_elaborazione_suono,10,5,4,3,valle) slot_completo(acquisizione_elaborazione_suono,21,6,3,3,valle) slot_completo(acquisizione_elaborazione_suono,24,6,4,2,valle) slot_completo(acquisizione_elaborazione_immagini_digitali,9,5,5,2,ghidelli) slot_completo(acquisizione_elaborazione_immagini_digitali,11,5,1,4,ghidelli) slot_completo(acquisizione_elaborazione_immagini_digitali,16,5,5,2,ghidelli) slot_completo(acquisizione_elaborazione_immagini_digitali,18,5,3,3,ghidelli) slot_completo(acquisizione_elaborazione_immagini_digitali,20,5,6,3,ghidelli) slot_completo(acquisizione_elaborazione_immagini_digitali,21,5,4,2,ghidelli) slot_completo(acquisizione_elaborazione_immagini_digitali,10,6,1,2,ghidelli) slot_completo(acquisizione_elaborazione_immagini_digitali,17,6,1,2,ghidelli) slot_completo(comunicazione_pubblicitaria,19,5,7,2,gabardi) slot_completo(comunicazione_pubblicitaria,22,5,1,4,gabardi) slot_completo(comunicazione_pubblicitaria,24,5,1,2,gabardi) slot_completo(comunicazione_pubblicitaria,7,1,7,2,gabardi) slot_completo(comunicazione_pubblicitaria,9,6,2,2,gabardi) slot_completo(comunicazione_pubblicitaria,19,6,3,2,gabardi) slot_completo(semiologia_multimedialita,9,5,1,2,santangelo) slot_completo(semiologia_multimedialita,14,5,1,2,santangelo) slot_completo(semiologia_multimedialita,16,2,5,4,santangelo) slot_completo(semiologia_multimedialita,22,6,4,2,santangelo) slot_completo(crossmedia,1,5,3,2,taddeo) slot_completo(crossmedia,7,5,7,2,taddeo) slot_completo(crossmedia,10,5,2,2,taddeo) 
slot_completo(crossmedia,19,5,5,2,taddeo) slot_completo(crossmedia,21,5,1,3,taddeo) slot_completo(crossmedia,15,6,1,3,taddeo) slot_completo(crossmedia,22,6,1,3,taddeo) slot_completo(crossmedia,23,6,1,3,taddeo) slot_completo(grafica_3d,14,5,3,4,gribaudo) slot_completo(grafica_3d,15,5,7,2,gribaudo) slot_completo(grafica_3d,7,2,1,2,gribaudo) slot_completo(grafica_3d,16,3,1,4,gribaudo) slot_completo(grafica_3d,11,6,1,2,gribaudo) slot_completo(grafica_3d,20,6,1,3,gribaudo) slot_completo(grafica_3d,24,6,1,3,gribaudo) slot_completo(progettazione_mobile_1,18,5,6,3,pozzato) slot_completo(progettazione_mobile_1,19,5,1,2,pozzato) slot_completo(progettazione_mobile_1,17,6,3,3,pozzato) slot_completo(progettazione_mobile_1,18,6,1,2,pozzato) slot_completo(progettazione_mobile_2,20,5,2,4,schifanella) slot_completo(progettazione_mobile_2,23,5,1,4,schifanella) slot_completo(progettazione_mobile_2,23,6,4,2,schifanella) slot_completo(gestione_risorse_umane,2,5,3,3,lombardo) slot_completo(gestione_risorse_umane,4,5,1,3,lombardo) slot_completo(gestione_risorse_umane,15,5,5,2,lombardo) slot_completo(gestione_risorse_umane,16,6,4,2,lombardo) slot_completo(vincoli_giuridici,19,5,3,2,travostino) slot_completo(vincoli_giuridici,7,3,1,3,travostino) slot_completo(vincoli_giuridici,6,6,4,2,travostino) slot_completo(vincoli_giuridici,18,6,3,3,travostino) slot_completo(presentazione_master,1,5,1,2,nessuno) slot_completo(recupero_lezioni,2,5,1,2,nessuno) slot_completo(recupero_lezioni,18,5,1,2,nessuno)
SATISFIABLE

Models       : 1+
Calls        : 1
Time         : 4361.134s (Solving: 4335.67s 1st Model: 4335.21s Unsat: 0.00s)
CPU Time     : 4061.750s